155885 
58282 16
0
3
4
74
38
39
33
32
26
27
44
48
67
69
46
22

97603 60
75
2
21
25
49
50
52
53
54
42
43
28
29
30
31
19
20
5
6
7
8
9
10
11
12
13
14
15
16
17
18
37
36
35
34
40
41
60
59
58
61
62
64
63
57
55
56
51
66
65
73
72
71
70
68
47
45
24
23
1

